100
4 0
0 0
3 1
24 3
33 0
14 4
36 3
12 4
24 2
9 0
43 3
25 4
12 2
42 3
3 4
15 0
7 4
36 4
4 4
25 3
30 0
25 0
9 3
32 4
14 2
37 3
37 2
12 3
22 0
3 0
7 0
43 0
38 4
34 2
28 1
15 4
34 0
10 3
10 1
0 4
6 2
1 0
19 1
41 4
11 0
30 1
43 4
6 4
2 4
10 0
11 1
5 0
9 4
19 4
39 4
4 3
6 3
32 0
18 0
34 1
7 3
10 4
18 4
29 3
39 1
2 0
37 4
3 3
14 3
32 2
41 0
16 4
23 0
1 4
24 0
27 0
21 4
39 0
1 1
18 3
19 0
23 1
36 0
42 1
0 2
14 1
14 0
11 4
43 2
40 4
34 4
13 0
31 4
40 0
23 4
20 3
22 1
16 0
21 0
31 1

